; benchmark generated from python API
(set-info :status unknown)
(declare-datatypes ((RealState 0)) (((RMk1 (rval1 Real)) (RMk2 (rval2 Real)))))
 (assert
 (forall ((|v11:0| Real) )(exists ((|v10:1_st| RealState) (val!2916 Real) )(forall ((|v9:2| Real) )(exists ((|v8:3_st| RealState) (val!2917 Real) )(forall ((|v7:4| Real) )(exists ((|v6:5_st| RealState) (val!2918 Real) )(forall ((|v5:6| Real) )(exists ((|v4:7_st| RealState) (val!2919 Real) )(forall ((|v3:8| Real) )(exists ((|v2:9_st| RealState) (val!2920 Real) )(forall ((|v1:10| Real) )(exists ((|v0:11_st| RealState) (val!2921 Real) )(let ((?x350 (+ (+ (* 14.0 (rval2 |v8:3_st|)) (* (- 4.0) (rval2 |v6:5_st|))) (* 6.0 (rval2 |v2:9_st|)))))
 (let ((?x2773 (+ (+ (+ |v1:10| (* 10.0 |v3:8|)) (* (- 9.0) |v5:6|)) (* (- 18.0) |v5:6|))))
 (let ((?x2251 (- 17.0)))
 (let ((?x451 (rval2 |v6:5_st|)))
 (let ((?x2940 (* 18.0 ?x451)))
 (let ((?x3148 (+ (+ (* 10.0 (rval2 |v8:3_st|)) (* 2.0 |v3:8|)) (* (- 1.0) (rval2 |v0:11_st|)))))
 (let ((?x801 (- 20.0)))
 (let ((?x2542 (rval2 |v10:1_st|)))
 (let ((?x2589 (* 6.0 ?x2542)))
 (let ((?x1592 (rval2 |v2:9_st|)))
 (let ((?x1557 (* 10.0 ?x1592)))
 (let (($x2364 (<= (+ (+ (+ (* 10.0 ?x451) (* 2.0 (rval2 |v8:3_st|))) ?x1557) ?x2589) ?x801)))
 (let ((?x864 (- 14.0)))
 (let ((?x288 (+ (+ (* (- 18.0) ?x2542) (* (- 16.0) |v5:6|)) (* (- 1.0) ?x451))))
 (let (($x1567 (and (<= (+ ?x288 (* 20.0 |v11:0|)) ?x864) (and $x2364 (<= (+ ?x3148 ?x2940) ?x2251)))))
 (let ((?x48 (- 9.0)))
 (let ((?x3141 (* ?x48 |v7:4|)))
 (let (($x996 (<= (+ (+ (+ (* (- 18.0) |v9:2|) ?x3141) ?x3141) (* (- 19.0) |v7:4|)) 9.0)))
 (let ((?x61 (- 6.0)))
 (let ((?x213 (+ (+ (+ (* 4.0 |v5:6|) (* (- 3.0) (rval2 |v8:3_st|))) (* ?x2251 |v7:4|)) (* 7.0 (rval2 |v4:7_st|)))))
 (let ((?x86 (+ (+ (+ (* 14.0 (rval2 |v0:11_st|)) (* ?x48 ?x451)) (* 5.0 ?x2542)) (* (- 15.0) ?x451))))
 (let ((?x1177 (- 12.0)))
 (let (($x2727 (<= (+ (+ (+ (* 2.0 |v11:0|) (* ?x48 ?x1592)) (* (- 2.0) |v7:4|)) ?x1557) ?x1177)))
 (let ((?x582 (+ (+ (+ (* 17.0 ?x2542) (* ?x2251 ?x451)) (* (- 3.0) (rval2 |v8:3_st|))) (* (- 1.0) |v5:6|))))
 (let ((?x1988 (* 3.0 |v1:10|)))
 (let ((?x1262 (+ (+ (* (- 4.0) (rval2 |v4:7_st|)) (* (- 7.0) |v1:10|)) (* (- 15.0) |v7:4|))))
 (let ((?x1739 (* 16.0 ?x451)))
 (let ((?x1603 (+ (+ (+ (* 12.0 |v7:4|) (* 15.0 |v7:4|)) (* 6.0 (rval2 |v0:11_st|))) ?x1739)))
 (let ((?x656 (- 11.0)))
 (let ((?x718 (+ (+ (+ (* (- 13.0) ?x1592) (* 17.0 ?x1592)) (* 9.0 ?x1592)) (* ?x2251 |v11:0|))))
 (let (($x637 (and (and (<= ?x718 ?x656) (<= ?x1603 20.0)) (and (<= (+ ?x1262 ?x1988) 6.0) (<= ?x582 ?x2251)))))
 (let (($x1729 (or (or $x637 (and (or $x2727 (<= ?x86 12.0)) (or (<= ?x213 ?x61) $x996))) (and $x1567 (<= ?x2773 14.0)))))
 (let ((?x445 (- 13.0)))
 (let ((?x2661 (* 19.0 |v3:8|)))
 (let ((?x2567 (+ (+ (+ (* 15.0 |v9:2|) (* (- 8.0) |v3:8|)) (* (- 16.0) |v1:10|)) ?x2661)))
 (let ((?x1737 (- 18.0)))
 (let ((?x438 (+ (+ (+ (* 14.0 (rval2 |v8:3_st|)) (* (- 3.0) |v7:4|)) (* 3.0 ?x1592)) |v3:8|)))
 (let ((?x1973 (* 4.0 |v7:4|)))
 (let ((?x1190 (+ (+ (+ (* ?x801 ?x451) (* (- 19.0) |v1:10|)) (* (- 16.0) |v11:0|)) ?x1973)))
 (let (($x891 (<= (+ (+ (+ (* 7.0 |v11:0|) (* 5.0 |v5:6|)) ?x2940) (* 12.0 |v11:0|)) ?x801)))
 (let ((?x845 (- 2.0)))
 (let ((?x415 (+ (+ (+ (* ?x801 ?x1592) (* 15.0 ?x451)) (* ?x48 |v3:8|)) (* (- 3.0) |v11:0|))))
 (let (($x1153 (and (or (<= ?x415 ?x845) $x891) (and (<= ?x1190 16.0) (<= ?x438 ?x1737)))))
 (let ((?x608 (rval2 |v0:11_st|)))
 (let ((?x605 (- 4.0)))
 (let ((?x2586 (* ?x605 ?x608)))
 (let (($x1434 (<= (+ (+ (+ ?x2542 (* 5.0 |v9:2|)) (* (- 7.0) |v1:10|)) ?x2586) ?x656)))
 (let ((?x2115 (- 8.0)))
 (let ((?x2528 (+ (+ (+ (* 4.0 |v11:0|) (* ?x1737 |v11:0|)) (* 19.0 |v5:6|)) (* 16.0 ?x2542))))
 (let ((?x2412 (- 3.0)))
 (let ((?x665 (* ?x2251 |v7:4|)))
 (let ((?x1926 (+ (+ (+ (* 15.0 (rval2 |v4:7_st|)) (* ?x2115 ?x2542)) (* 7.0 |v11:0|)) ?x665)))
 (let ((?x347 (- 19.0)))
 (let ((?x371 (+ (+ (* ?x845 (rval2 |v4:7_st|)) (* (- 5.0) (rval2 |v8:3_st|))) (* ?x656 ?x2542))))
 (let ((?x2176 (- 16.0)))
 (let ((?x230 (+ (+ (+ ?x451 (* 8.0 |v1:10|)) (* (- 5.0) (rval2 |v8:3_st|))) (* ?x1737 ?x451))))
 (let ((?x1950 (+ (+ (+ (* ?x445 ?x1592) ?x1592) (* ?x445 |v5:6|)) (* 9.0 (rval2 |v4:7_st|)))))
 (let (($x1576 (or (and (<= ?x1950 10.0) (<= ?x230 ?x2176)) (or (<= (+ ?x371 ?x2586) ?x347) (<= ?x1926 ?x2412)))))
 (let (($x2072 (or (and (or $x1576 (or (<= ?x2528 ?x2115) $x1434)) (or $x1153 (<= ?x2567 ?x445))) $x1729)))
 (let (($x1423 (not (= |v0:11_st| (RMk1 val!2921)))))
 (let (($x937 (not (= |v2:9_st| (RMk1 val!2920)))))
 (let (($x1277 (not (= |v4:7_st| (RMk1 val!2919)))))
 (let (($x1151 (not (= |v6:5_st| (RMk1 val!2918)))))
 (let (($x1011 (not (= |v8:3_st| (RMk1 val!2917)))))
 (let (($x439 (not (= |v10:1_st| (RMk1 val!2916)))))
 (and $x439 $x1011 $x1151 $x1277 $x937 $x1423 (and $x2072 (<= (+ ?x350 (* 5.0 ?x608)) 7.0)))))))))))))))))))))))))))))))))))))))))))))))))))))))))))))))))))))
 )
 )
 )
 )
 )
 )
 )
 )
 )
 )
 )
 )
(check-sat)
